* ENCODING=ISO-8859-1
NAME          CPLEX
ROWS
 N  obj1    
 G  c1      
 G  c2      
 G  c3      
 G  c4      
 G  c5      
 G  c6      
 G  c7      
 G  c8      
 G  c9      
 G  c10     
 G  c11     
 G  c12     
 G  c13     
 G  c14     
 G  c15     
 G  c16     
 G  c17     
 G  c18     
 G  c19     
 G  c20     
 G  c21     
 G  c22     
 G  c23     
 G  c24     
 G  c25     
 G  c26     
 G  c27     
 G  c28     
 G  c29     
 G  c30     
 G  c31     
 G  c32     
 G  c33     
 G  c34     
 G  c35     
COLUMNS
    MARK0000  'MARKER'                 'INTORG'
    x1        obj1                            1
    x1        c20                           214
    x2        obj1                            1
    x2        c2                            458
    x2        c8                            153
    x2        c22                           848
    x2        c31                           311
    x3        obj1                            1
    x4        obj1                            1
    x4        c3                            894
    x4        c12                           534
    x4        c20                           938
    x5        obj1                            1
    x5        c1                            730
    x5        c8                            847
    x6        obj1                            1
    x6        c4                            966
    x6        c7                            450
    x6        c18                           214
    x6        c22                           375
    x6        c32                           286
    x6        c33                           388
    x7        obj1                            1
    x7        c1                            370
    x7        c14                           964
    x7        c17                           741
    x7        c26                           453
    x8        obj1                            1
    x8        c2                            812
    x8        c31                           933
    x8        c33                           523
    x9        obj1                            1
    x9        c1                            348
    x9        c6                            159
    x9        c9                            786
    x9        c13                           400
    x9        c16                           526
    x9        c19                           521
    x9        c21                           771
    x9        c28                           631
    x10       obj1                            1
    x10       c33                           477
    x11       obj1                            1
    x11       c14                          1000
    x12       obj1                            1
    x12       c2                            158
    x12       c3                            488
    x12       c23                           570
    x12       c29                           589
    x13       obj1                            1
    x13       c8                            905
    x14       obj1                            1
    x14       c1                            821
    x14       c6                            741
    x14       c17                           618
    x14       c18                           390
    x14       c28                           925
    x14       c30                           196
    x14       c32                           112
    x15       obj1                            1
    x15       c2                            261
    x15       c22                           318
    x15       c23                           811
    x15       c30                           195
    x16       obj1                            1
    x16       c4                            304
    x16       c14                           263
    x16       c18                           898
    x16       c24                           418
    x17       obj1                            1
    x17       c28                           884
    x18       obj1                            1
    x18       c12                           925
    x18       c24                           166
    x18       c25                           829
    x18       c26                           125
    x19       obj1                            1
    x19       c17                           281
    x19       c19                           786
    x19       c23                           219
    x19       c35                           587
    x20       obj1                            1
    x20       c27                           206
    x21       obj1                            1
    x21       c3                            670
    x21       c10                           254
    x21       c34                           914
    x22       obj1                            1
    x22       c22                           195
    x23       obj1                            1
    x23       c9                            113
    x23       c16                           829
    x23       c19                           654
    x23       c20                           436
    x23       c21                           957
    x24       obj1                            1
    x24       c11                           357
    x24       c13                           203
    x24       c22                           458
    x24       c26                           530
    x24       c35                           631
    x25       obj1                            1
    x25       c14                           108
    x25       c18                           122
    x25       c35                           450
    x26       obj1                            1
    x26       c14                           675
    x26       c33                           508
    x27       obj1                            1
    x27       c6                            216
    x27       c9                            876
    x27       c16                           852
    x27       c29                           382
    x28       obj1                            1
    x28       c14                           751
    x28       c32                           625
    x29       obj1                            1
    x29       c15                           493
    x29       c17                           126
    x29       c22                           901
    x29       c30                           164
    x29       c32                           953
    x30       obj1                            1
    x30       c12                           598
    x30       c32                           268
    x31       obj1                            1
    x31       c8                            855
    x31       c12                           913
    x31       c22                           649
    x31       c30                           341
    x32       obj1                            1
    x32       c3                            461
    x32       c14                           851
    x32       c17                           566
    x32       c35                           848
    x33       obj1                            1
    x33       c12                           660
    x33       c17                           792
    x33       c32                           562
    x34       obj1                            1
    x34       c3                            269
    x34       c26                           896
    x35       obj1                            1
    x35       c7                            381
    x35       c8                            220
    x35       c10                           114
    x35       c21                           661
    x35       c31                           815
    x35       c32                           227
    x35       c33                           433
    x35       c34                           219
    x36       obj1                            1
    x36       c15                           349
    x36       c26                           212
    x36       c30                           722
    x37       obj1                            1
    x37       c3                            631
    x37       c32                           472
    x37       c34                           890
    x38       obj1                            1
    x38       c11                           974
    x38       c17                           842
    x38       c18                           152
    x38       c32                           215
    x39       obj1                            1
    x39       c10                           992
    x39       c18                           505
    x39       c19                           746
    x39       c27                           602
    x40       obj1                            1
    x40       c5                            464
    x40       c15                           827
    x40       c27                           463
    x41       obj1                            1
    x41       c14                           427
    x41       c24                           948
    x41       c30                           727
    x42       obj1                            1
    x42       c13                           326
    x42       c16                           416
    x42       c26                           343
    x42       c27                           568
    x42       c34                           458
    x43       obj1                            1
    x43       c9                            163
    x43       c11                           522
    x43       c13                           592
    x43       c24                           245
    x43       c31                           221
    x44       obj1                            1
    x44       c4                            661
    x44       c31                           246
    x45       obj1                            1
    x45       c2                            366
    x45       c5                            520
    x45       c6                            623
    x45       c25                           549
    x45       c34                           855
    x46       obj1                            1
    x46       c1                            337
    x46       c5                            580
    x46       c26                           168
    x46       c27                           426
    x46       c31                           997
    x47       obj1                            1
    x47       c10                           622
    x47       c12                           472
    x47       c22                           824
    x47       c23                           391
    x47       c25                           595
    x48       obj1                            1
    x48       c22                           638
    x48       c26                           359
    x48       c29                           563
    x48       c31                           886
    x49       obj1                            1
    x49       c4                            561
    x49       c15                           125
    x49       c17                           661
    x49       c21                           641
    x50       obj1                            1
    x50       c4                            398
    x50       c6                            208
    x50       c15                           680
    x50       c33                           168
    x51       obj1                            1
    x51       c5                            576
    x51       c27                           721
    x52       obj1                            1
    x52       c4                            415
    x52       c5                            748
    x52       c34                           811
    x53       obj1                            1
    x53       c1                            985
    x53       c5                            335
    x53       c18                           881
    x53       c19                           685
    x53       c23                           911
    x53       c24                           353
    x53       c28                           452
    x54       obj1                            1
    x54       c7                            993
    x55       obj1                            1
    x55       c4                            369
    x55       c6                            541
    x55       c11                           627
    x55       c19                           861
    x55       c25                           631
    x55       c32                           690
    x55       c35                           705
    x56       obj1                            1
    x56       c5                            569
    x56       c12                           881
    x56       c24                           434
    x56       c35                           556
    x57       obj1                            1
    x57       c3                            797
    x57       c4                            365
    x57       c13                           233
    x57       c16                           280
    x57       c19                           724
    x57       c27                           580
    x57       c29                           760
    x57       c31                           723
    x57       c33                           621
    x58       obj1                            1
    x58       c17                           358
    x59       obj1                            1
    x59       c7                            997
    x59       c11                           351
    x59       c13                           316
    x59       c16                           399
    x60       obj1                            1
    x60       c5                            542
    x60       c6                            928
    x60       c10                           256
    x60       c15                           613
    x60       c20                           240
    x60       c31                           842
    x61       obj1                            1
    x61       c1                            789
    x61       c9                            628
    x61       c29                           184
    x61       c33                           176
    x62       obj1                            1
    x62       c10                           326
    x62       c29                           592
    x63       obj1                            1
    x63       c22                           865
    x63       c26                           135
    x64       obj1                            1
    x64       c3                            329
    x64       c26                           434
    x64       c34                           983
    x65       obj1                            1
    x65       c5                            319
    x65       c19                           591
    x66       obj1                            1
    x66       c2                            858
    x66       c4                            821
    x66       c12                           353
    x67       obj1                            1
    x67       c7                            982
    x67       c13                           845
    x68       obj1                            1
    x68       c6                            309
    x68       c14                           432
    x68       c15                           214
    x68       c19                           397
    x68       c29                           142
    x69       obj1                            1
    x69       c4                            328
    x69       c10                           801
    x69       c13                           604
    x70       obj1                            1
    x70       c14                           955
    x70       c18                           825
    MARK0001  'MARKER'                 'INTEND'
RHS
    rhs       c1                           2190
    rhs       c2                           1457
    rhs       c3                           2270
    rhs       c4                           2594
    rhs       c5                           2327
    rhs       c6                           1863
    rhs       c7                           1902
    rhs       c8                           1490
    rhs       c9                           1283
    rhs       c10                          1683
    rhs       c11                          1416
    rhs       c12                          2668
    rhs       c13                          1760
    rhs       c14                          3213
    rhs       c15                          1651
    rhs       c16                          1651
    rhs       c17                          2493
    rhs       c18                          1994
    rhs       c19                          2983
    rhs       c20                           914
    rhs       c21                          1515
    rhs       c22                          3036
    rhs       c23                          1451
    rhs       c24                          1282
    rhs       c25                          1302
    rhs       c26                          1828
    rhs       c27                          1783
    rhs       c28                          1446
    rhs       c29                          1606
    rhs       c30                          1173
    rhs       c31                          2987
    rhs       c32                          2205
    rhs       c33                          1647
    rhs       c34                          2565
    rhs       c35                          1889
BOUNDS
 LI bnd       x1        0
 LI bnd       x2        0
 LI bnd       x3        0
 LI bnd       x4        0
 LI bnd       x5        0
 LI bnd       x6        0
 LI bnd       x7        0
 LI bnd       x8        0
 LI bnd       x9        0
 LI bnd       x10       0
 LI bnd       x11       0
 LI bnd       x12       0
 LI bnd       x13       0
 LI bnd       x14       0
 LI bnd       x15       0
 LI bnd       x16       0
 LI bnd       x17       0
 LI bnd       x18       0
 LI bnd       x19       0
 LI bnd       x20       0
 LI bnd       x21       0
 LI bnd       x22       0
 LI bnd       x23       0
 LI bnd       x24       0
 LI bnd       x25       0
 LI bnd       x26       0
 LI bnd       x27       0
 LI bnd       x28       0
 LI bnd       x29       0
 LI bnd       x30       0
 LI bnd       x31       0
 LI bnd       x32       0
 LI bnd       x33       0
 LI bnd       x34       0
 LI bnd       x35       0
 LI bnd       x36       0
 LI bnd       x37       0
 LI bnd       x38       0
 LI bnd       x39       0
 LI bnd       x40       0
 LI bnd       x41       0
 LI bnd       x42       0
 LI bnd       x43       0
 LI bnd       x44       0
 LI bnd       x45       0
 LI bnd       x46       0
 LI bnd       x47       0
 LI bnd       x48       0
 LI bnd       x49       0
 LI bnd       x50       0
 LI bnd       x51       0
 LI bnd       x52       0
 LI bnd       x53       0
 LI bnd       x54       0
 LI bnd       x55       0
 LI bnd       x56       0
 LI bnd       x57       0
 LI bnd       x58       0
 LI bnd       x59       0
 LI bnd       x60       0
 LI bnd       x61       0
 LI bnd       x62       0
 LI bnd       x63       0
 LI bnd       x64       0
 LI bnd       x65       0
 LI bnd       x66       0
 LI bnd       x67       0
 LI bnd       x68       0
 LI bnd       x69       0
 LI bnd       x70       0
ENDATA
